c File: data_files/evolved_graphs/g8108.col
c
c Auto generated graph
c
p edge 100 97
e 5 48
e 5 49
e 5 50
e 5 51
e 5 52
e 5 53
e 5 54
e 5 55
e 6 48
e 6 49
e 6 50
e 6 51
e 6 52
e 6 53
e 6 54
e 6 55
e 7 48
e 7 49
e 7 50
e 7 51
e 7 52
e 7 53
e 7 54
e 7 55
e 8 48
e 8 49
e 8 50
e 8 51
e 8 52
e 8 53
e 8 54
e 8 55
e 9 48
e 9 49
e 9 50
e 9 51
e 9 52
e 9 53
e 9 54
e 9 55
e 10 48
e 10 49
e 10 50
e 10 51
e 10 52
e 10 53
e 10 54
e 10 55
e 11 48
e 11 49
e 11 50
e 11 51
e 11 52
e 11 53
e 11 54
e 11 55
e 12 48
e 12 49
e 12 50
e 12 51
e 12 52
e 12 53
e 12 54
e 12 55
e 13 48
e 13 49
e 13 50
e 13 51
e 13 52
e 13 53
e 13 54
e 13 55
e 14 48
e 14 49
e 14 50
e 14 51
e 14 52
e 14 53
e 14 54
e 14 55
e 15 48
e 15 49
e 15 50
e 15 51
e 15 52
e 15 53
e 15 54
e 15 55
e 16 48
e 16 49
e 16 50
e 16 51
e 16 52
e 16 53
e 16 54
e 16 55
e 22 52
